p tw 75 1116
0 1
0 2
0 3
0 4
0 5
0 6
0 7
0 8
0 9
0 10
0 11
0 12
0 15
0 17
0 21
0 24
0 25
0 26
0 27
0 28
0 29
0 30
0 13
0 31
0 32
0 33
0 34
0 35
0 36
1 2
1 3
1 4
1 5
1 6
1 7
1 8
1 9
1 10
1 11
1 12
1 30
1 34
1 42
1 55
1 56
1 57
1 58
1 59
1 13
1 16
1 27
1 44
1 66
1 69
2 3
2 4
2 5
2 6
2 7
2 8
2 9
2 10
2 11
2 12
2 15
2 17
2 21
2 24
2 25
2 26
2 27
2 28
2 29
2 30
2 20
2 37
2 38
2 42
2 48
2 49
2 50
2 51
2 52
2 22
2 39
2 46
2 53
2 54
3 4
3 5
3 6
3 7
3 8
3 9
3 10
3 11
3 12
3 16
3 30
3 37
3 44
3 47
3 49
3 51
3 52
3 56
3 60
3 61
3 62
3 28
3 31
3 32
3 46
3 53
3 69
4 5
4 6
4 7
4 8
4 9
4 10
4 11
4 12
4 28
4 31
4 32
4 46
4 52
4 53
4 56
4 69
4 15
4 16
4 26
4 34
4 35
4 41
4 43
4 49
4 50
4 70
4 71
4 17
4 19
4 21
4 39
4 42
4 47
4 48
4 64
4 22
4 25
4 61
4 63
4 66
4 72
5 6
5 7
5 8
5 9
5 10
5 11
5 12
5 13
5 16
5 27
5 44
5 66
5 69
6 7
6 8
6 9
6 10
6 11
6 12
6 13
6 22
6 32
6 37
6 38
6 39
6 40
6 41
6 42
6 43
6 21
6 24
6 25
6 46
6 50
6 53
6 54
6 30
6 34
6 55
6 56
6 57
6 58
6 59
7 8
7 9
7 10
7 11
7 12
7 13
7 21
7 29
7 30
7 31
7 32
7 33
7 34
7 35
7 36
7 22
7 37
7 38
7 39
7 40
7 41
7 42
7 43
7 44
7 45
7 46
7 47
7 55
7 56
7 57
7 58
7 59
8 9
8 10
8 11
8 12
8 30
8 34
8 42
8 55
8 56
8 57
8 58
8 59
9 10
9 11
9 12
9 13
9 33
9 34
9 37
9 40
9 42
9 44
9 45
9 46
9 47
9 30
9 55
9 56
9 57
9 58
9 59
9 16
9 27
9 66
9 69
9 28
9 31
9 32
9 52
9 53
9 17
9 19
9 21
9 39
9 48
9 64
10 11
10 12
10 13
10 33
10 34
10 37
10 40
10 42
10 44
10 45
10 46
10 47
10 20
10 21
10 27
10 38
10 48
10 49
10 50
10 51
10 52
10 17
10 26
10 36
10 53
10 55
10 56
10 63
10 65
10 30
10 31
10 32
10 39
10 60
10 67
10 69
10 74
10 22
10 25
10 43
10 61
10 66
10 72
11 12
11 21
11 22
11 24
11 25
11 39
11 46
11 50
11 53
11 54
12 15
12 29
12 31
12 36
12 40
12 49
12 55
12 64
12 66
12 67
12 68
12 13
12 16
12 27
12 44
12 69
13 14
13 15
13 16
13 17
13 18
13 19
13 20
13 21
13 22
13 23
13 24
13 29
13 30
13 31
13 32
13 33
13 34
13 35
13 36
13 37
13 38
13 39
13 40
13 41
13 42
13 43
13 44
13 45
13 46
13 47
13 27
13 66
13 69
14 15
14 16
14 17
14 18
14 19
14 20
14 21
14 22
14 23
14 24
14 31
14 35
14 47
14 51
14 52
14 55
14 64
14 70
14 72
14 73
15 16
15 17
15 18
15 19
15 20
15 21
15 22
15 23
15 24
15 25
15 26
15 27
15 28
15 29
15 30
15 31
15 36
15 40
15 49
15 55
15 64
15 66
15 67
15 68
15 34
15 35
15 41
15 43
15 50
15 70
15 71
15 47
15 51
15 52
15 72
15 73
16 17
16 18
16 19
16 20
16 21
16 22
16 23
16 24
16 30
16 37
16 44
16 47
16 49
16 51
16 52
16 56
16 60
16 61
16 62
16 25
16 26
16 33
16 35
16 36
16 39
16 42
16 63
16 64
16 65
16 27
16 66
16 69
16 34
16 41
16 43
16 50
16 70
16 71
17 18
17 19
17 20
17 21
17 22
17 23
17 24
17 25
17 26
17 27
17 28
17 29
17 30
17 36
17 37
17 44
17 47
17 48
17 53
17 55
17 56
17 63
17 65
17 31
17 39
17 42
17 64
17 32
17 43
17 52
17 61
17 66
17 72
18 19
18 20
18 21
18 22
18 23
18 24
19 20
19 21
19 22
19 23
19 24
19 25
19 26
19 33
19 35
19 36
19 39
19 42
19 63
19 64
19 65
19 31
19 47
19 48
19 56
20 21
20 22
20 23
20 24
20 27
20 37
20 38
20 42
20 48
20 49
20 50
20 51
20 52
21 22
21 23
21 24
21 25
21 26
21 27
21 28
21 29
21 30
21 31
21 32
21 33
21 34
21 35
21 36
21 37
21 38
21 42
21 48
21 49
21 50
21 51
21 52
21 39
21 46
21 53
21 54
21 47
21 56
21 64
22 23
22 24
22 32
22 37
22 38
22 39
22 40
22 41
22 42
22 43
22 25
22 46
22 50
22 53
22 54
22 52
22 56
22 61
22 63
22 66
22 72
23 24
24 25
24 26
24 27
24 28
24 29
24 30
24 39
24 46
24 50
24 53
24 54
25 26
25 27
25 28
25 29
25 30
25 39
25 46
25 50
25 53
25 54
25 33
25 35
25 36
25 42
25 63
25 64
25 65
25 32
25 43
25 52
25 56
25 61
25 66
25 72
26 27
26 28
26 29
26 30
26 33
26 35
26 36
26 39
26 42
26 63
26 64
26 65
26 37
26 44
26 47
26 48
26 53
26 55
26 56
26 34
26 41
26 43
26 49
26 50
26 70
26 71
27 28
27 29
27 30
27 37
27 38
27 42
27 48
27 49
27 50
27 51
27 52
27 44
27 66
27 69
27 31
27 32
27 39
27 46
27 60
27 63
27 67
27 74
28 29
28 30
28 31
28 32
28 46
28 52
28 53
28 56
28 69
29 30
29 31
29 32
29 33
29 34
29 35
29 36
29 40
29 49
29 55
29 64
29 66
29 67
29 68
30 31
30 32
30 33
30 34
30 35
30 36
30 42
30 55
30 56
30 57
30 58
30 59
30 37
30 44
30 47
30 49
30 51
30 52
30 60
30 61
30 62
30 39
30 46
30 63
30 67
30 69
30 74
31 32
31 33
31 34
31 35
31 36
31 40
31 49
31 55
31 64
31 66
31 67
31 68
31 46
31 52
31 53
31 56
31 69
31 47
31 51
31 70
31 72
31 73
31 39
31 42
31 48
31 60
31 63
31 74
32 33
32 34
32 35
32 36
32 37
32 38
32 39
32 40
32 41
32 42
32 43
32 46
32 52
32 53
32 56
32 69
32 60
32 63
32 67
32 74
32 61
32 66
32 72
33 34
33 35
33 36
33 37
33 40
33 42
33 44
33 45
33 46
33 47
33 39
33 63
33 64
33 65
34 35
34 36
34 37
34 40
34 42
34 44
34 45
34 46
34 47
34 55
34 56
34 57
34 58
34 59
34 41
34 43
34 49
34 50
34 70
34 71
35 36
35 39
35 42
35 63
35 64
35 65
35 41
35 43
35 49
35 50
35 70
35 71
35 47
35 51
35 52
35 55
35 72
35 73
36 39
36 42
36 63
36 64
36 65
36 40
36 49
36 55
36 66
36 67
36 68
36 37
36 44
36 47
36 48
36 53
36 56
37 38
37 39
37 40
37 41
37 42
37 43
37 44
37 45
37 46
37 47
37 48
37 49
37 50
37 51
37 52
37 56
37 60
37 61
37 62
37 53
37 55
37 63
37 65
38 39
38 40
38 41
38 42
38 43
38 48
38 49
38 50
38 51
38 52
39 40
39 41
39 42
39 43
39 46
39 50
39 53
39 54
39 63
39 64
39 65
39 47
39 48
39 56
39 60
39 67
39 69
39 74
40 41
40 42
40 43
40 44
40 45
40 46
40 47
40 49
40 55
40 64
40 66
40 67
40 68
41 42
41 43
41 49
41 50
41 70
41 71
42 43
42 44
42 45
42 46
42 47
42 48
42 49
42 50
42 51
42 52
42 55
42 56
42 57
42 58
42 59
42 63
42 64
42 65
43 49
43 50
43 70
43 71
43 52
43 56
43 61
43 63
43 66
43 72
44 45
44 46
44 47
44 49
44 51
44 52
44 56
44 60
44 61
44 62
44 48
44 53
44 55
44 63
44 65
44 66
44 69
45 46
45 47
46 47
46 50
46 53
46 54
46 52
46 56
46 69
46 60
46 63
46 67
46 74
47 49
47 51
47 52
47 56
47 60
47 61
47 62
47 48
47 53
47 55
47 63
47 65
47 64
47 70
47 72
47 73
48 49
48 50
48 51
48 52
48 53
48 55
48 56
48 63
48 65
48 64
49 50
49 51
49 52
49 56
49 60
49 61
49 62
49 55
49 64
49 66
49 67
49 68
49 70
49 71
50 51
50 52
50 53
50 54
50 70
50 71
51 52
51 56
51 60
51 61
51 62
51 55
51 64
51 70
51 72
51 73
52 56
52 60
52 61
52 62
52 53
52 69
52 55
52 64
52 70
52 72
52 73
52 63
52 66
53 54
53 55
53 56
53 63
53 65
53 69
55 56
55 57
55 58
55 59
55 64
55 66
55 67
55 68
55 63
55 65
55 70
55 72
55 73
56 57
56 58
56 59
56 60
56 61
56 62
56 63
56 65
56 69
56 64
56 66
56 72
57 58
57 59
58 59
60 61
60 62
60 63
60 67
60 69
60 74
61 62
61 63
61 66
61 72
63 64
63 65
63 67
63 69
63 74
63 66
63 72
64 65
64 66
64 67
64 68
64 70
64 72
64 73
66 67
66 68
66 69
66 72
67 68
67 69
67 74
69 74
70 71
70 72
70 73
72 73
